gen	cost
1	1464
2	1452
3	1435
4	1429
5	1417
6	1389
7	1385
8	1378
9	1361
10	1344
11	1335
12	1324
13	1306
14	1295
15	1292
16	1282
17	1271
18	1253
19	1243
20	1230
21	1225
22	1219
23	1214
24	1207
25	1198
26	1190
27	1188
28	1188
29	1184
30	1181
31	1172
32	1166
33	1162
34	1162
35	1160
36	1158
37	1152
38	1150
39	1147
40	1147
41	1146
42	1143
43	1143
44	1141
45	1139
46	1135
47	1135
48	1135
49	1134
50	1134

